21
aspirin mw=180.16 tier=S smiles=CC(=O)Oc1ccccc1C(=O)O ETKDGv3+MMFF n_conf=16 seed=20240624 prune_rms=0.5 conf_id=0 rdkit=2026.03.5
C      3.41300436     0.14366819     0.47468770
C      2.06649659     0.29739333    -0.16678379
O      1.86872471     0.27586622    -1.37489211
O      1.11380587     0.48954322     0.82766046
C     -0.18732459     0.55144727     0.32017047
C     -0.73981570     1.82618427     0.15844131
C     -2.04328175     1.95766402    -0.31637583
C     -2.79337151     0.82086327    -0.61583186
C     -2.24428308    -0.45291051    -0.43488998
C     -0.93325364    -0.60344498     0.04349912
C     -0.35347724    -1.95427130     0.26568655
O      0.73258382    -2.21749353     0.74812964
O     -1.17938700    -2.94211052    -0.13041378
H      4.15914134    -0.06685438    -0.29682233
H      3.39697356    -0.69402324     1.17649090
H      3.68714539     1.06970828     0.98584540
H     -0.15493683     2.71117280     0.39287189
H     -2.47452069     2.94615282    -0.45511529
H     -3.80983669     0.92387240    -0.98904290
H     -2.85336054    -1.32319596    -0.66887972
H     -0.67102638    -3.75923167     0.05556414
