41
atenolol mw=266.34 tier=M smiles=CC(C)NCC(O)COc1ccc(CC(N)=O)cc1 ETKDGv3+MMFF n_conf=16 seed=20240624 prune_rms=0.5 conf_id=0 rdkit=2026.03.5
C     -6.26282545     0.79185242    -0.27249683
C     -4.90511838     1.02943492     0.39586746
C     -5.10445563     1.82897199     1.68452332
N     -4.04349537     1.73770789    -0.55856437
C     -2.62223071     1.79306089    -0.18034472
C     -1.88578419     0.45043763    -0.34689504
O     -2.09701666    -0.04003639    -1.68221827
C     -0.38149262     0.61748521    -0.09756843
O      0.21425081    -0.68343142    -0.18599393
C      1.56077444    -0.76664519     0.03602900
C      2.42286647     0.30421401     0.26950018
C      3.78793981     0.07688827     0.47943389
C      4.30749080    -1.22366794     0.45646664
C      5.78263443    -1.47004413     0.67127165
C      6.50251776    -2.01186147    -0.54945491
N      6.31295754    -1.33043812    -1.71830676
O      7.26985600    -2.96858413    -0.50487033
C      3.43721413    -2.29509835     0.22429123
C      2.07619041    -2.06411622     0.01362649
H     -6.74808719     1.73570031    -0.54627548
H     -6.15462248     0.18959952    -1.18162883
H     -6.93631608     0.25111247     0.40146236
H     -4.48653954     0.04751431     0.64223329
H     -5.82671323     1.32959673     2.33993497
H     -5.48427579     2.83561814     1.47649101
H     -4.17242317     1.92702705     2.24931438
H     -4.07400591     1.24275692    -1.45715168
H     -2.48781310     2.18965466     0.83092531
H     -2.16206492     2.52328290    -0.85787007
H     -2.28786262    -0.30593138     0.33583131
H     -1.50859358    -0.81332106    -1.77634529
H      0.04906172     1.26450403    -0.87134580
H     -0.21520683     1.04022541     0.90010924
H      2.06975573     1.32978455     0.29523433
H      4.44134389     0.92787207     0.66322959
H      6.29250256    -0.54908286     0.97816817
H      5.90140222    -2.18675365     1.49302052
H      6.71851899    -1.75482111    -2.54292237
H      5.47653563    -0.77668600    -1.85361138
H      3.81129123    -3.31744859     0.20592040
H      1.41183886    -2.90633431    -0.16533207
