76
atorvastatin formula=C33H35FN2O5 tier=XL smiles=CC(C)C1=C(C(=C(N1CC[C@H](C[C@H](CC(=O)O)O)O)C2=CC=C(C=C2)F)C3=CC=CC=C3)C(=O)NC4=CC=CC=C4 ETKDGv3+MMFF n_conf=16 seed=20240624 prune_rms=0.5 conf_id=0 rdkit=2026.03.6
C      0.44723526     2.80675008    -2.12395257
C      0.08056944     2.82921295    -0.63954491
C     -0.96462868     3.90389451    -0.33336812
C     -0.33077659     1.45902473    -0.12371776
C     -1.50519695     0.73013737    -0.33749292
C     -1.38550253    -0.48803861     0.41092004
C     -0.16929859    -0.47357797     1.07999465
N      0.48376335     0.69626294     0.71249695
C      1.79285188     1.10153689     1.21371228
C      2.96417245     1.05394170     0.22265056
C      3.38564060    -0.36640071    -0.16905581
C      4.72782706    -0.41936145    -0.91843360
C      5.93912656     0.04981247    -0.10324044
C      7.26131330    -0.16434133    -0.83676319
C      7.37146203     0.66420772    -2.08160443
O      7.56771010     0.23680702    -3.20668581
O      7.26370347     1.98511086    -1.85632210
O      5.97751245    -0.66185001     1.13679139
O      2.39686824    -0.89607285    -1.05126465
C      0.40403299    -1.50079507     1.95779542
C      0.82215829    -2.72680323     1.42198899
C      1.34757951    -3.71674465     2.25317171
C      1.44643470    -3.48031896     3.61914935
C      1.02424034    -2.27625087     4.17128513
C      0.49616419    -1.28653727     3.34060726
F      1.95146188    -4.42997893     4.41735662
C     -2.32387300    -1.60283900     0.47866918
C     -2.90247989    -1.97932439     1.69721349
C     -3.82719592    -3.02412132     1.74336440
C     -4.18330845    -3.69263549     0.57284583
C     -3.61440507    -3.32021918    -0.64434526
C     -2.68656771    -2.27850195    -0.69254341
C     -2.65054004     1.14090039    -1.16765002
O     -2.49710131     1.62633375    -2.28140245
N     -3.86612435     0.92814642    -0.54382972
C     -5.15805053     1.17604586    -1.04497856
C     -6.23702018     0.81778702    -0.22550862
C     -7.55317450     1.02811137    -0.64474098
C     -7.80325094     1.59978756    -1.88890662
C     -6.73751703     1.95850655    -2.71078948
C     -5.41982751     1.74720152    -2.29109604
H     -0.42427626     2.69140823    -2.77127832
H      0.93338319     3.74703548    -2.40735015
H      1.13934870     1.99020192    -2.35430647
H      0.98316856     3.15446513    -0.11306151
H     -1.88692363     3.76816696    -0.90452953
H     -1.22592527     3.90484569     0.73070689
H     -0.57342460     4.89679066    -0.58188084
H      2.04655195     0.50160794     2.09098793
H      1.67373725     2.12070842     1.60047233
H      3.79847912     1.56559213     0.71288079
H      2.72271057     1.62562835    -0.67805432
H      3.42451566    -1.00766299     0.71828301
H      4.64674359     0.15901150    -1.84756944
H      4.88959836    -1.45985423    -1.23244714
H      5.83435756     1.11027160     0.14495609
H      7.37983687    -1.22087600    -1.10651679
H      8.11023742     0.07354082    -0.18493832
H      7.38163711     2.39368722    -2.74073841
H      6.16947541    -1.59809036     0.95083486
H      2.58242776    -1.84103998    -1.18058068
H      0.72675626    -2.91243724     0.35455540
H      1.66909693    -4.66950882     1.84616648
H      1.10323139    -2.11859330     5.24191088
H      0.15274811    -0.34996176     3.77325833
H     -2.63667804    -1.46338427     2.61642578
H     -4.26827639    -3.31728041     2.69242633
H     -4.90426257    -4.50543760     0.60831173
H     -3.89379838    -3.83845725    -1.55808533
H     -2.25103574    -1.99576596    -1.64898332
H     -3.81928371     0.52041437     0.38010623
H     -6.06751131     0.36393182     0.74756832
H     -8.38066979     0.74362761    -0.00043868
H     -8.82517624     1.76489454    -2.21939361
H     -6.92602609     2.40474242    -3.68397186
H     -4.62076207     2.04297095    -2.96328247
