24
caffeine mw=194.19 tier=S smiles=Cn1cnc2c1c(=O)n(C)c(=O)n2C ETKDGv3+MMFF n_conf=16 seed=20240624 prune_rms=0.5 conf_id=0 rdkit=2026.03.5
C      3.15724747    -1.03054674    -0.27703034
N      1.74708855    -1.26586982    -0.09784287
C      1.14490713    -2.48512328     0.06792819
N     -0.16084002    -2.36754907     0.20716633
C     -0.39092034    -1.02737004     0.12645830
C      0.75977475    -0.32354452    -0.06066074
C      0.79659837     1.09226029    -0.17780600
O      1.83944871     1.71722617    -0.34635860
N     -0.46978166     1.67631501    -0.08027952
C     -0.56672025     3.11909636    -0.18442081
C     -1.68302409     0.98263770     0.11314415
O     -2.75572184     1.58967144     0.18675696
N     -1.61341314    -0.40709022     0.21614136
C     -2.81579341    -1.19517559     0.41585780
H      3.51116961    -0.39753367     0.54046363
H      3.69087409    -1.98436644    -0.26170171
H      3.30844717    -0.53958166    -1.24157789
H      1.69622877    -3.41709527     0.07951270
H      0.40493276     3.59653142    -0.33289502
H     -1.01882645     3.51226264     0.73211173
H     -1.21864097     3.37182327    -1.02711514
H     -2.72545340    -1.75369365     1.35292701
H     -2.92745201    -1.89446235    -0.41884541
H     -3.71012981    -0.56882200     0.46806587
