40
celecoxib mw=381.37 tier=L smiles=Cc1ccc(cc1)-c1cc(nn1-c1ccc(cc1)S(N)(=O)=O)C(F)(F)F ETKDGv3+MMFF n_conf=16 seed=20240624 prune_rms=0.5 conf_id=0 rdkit=2026.03.5
C     -3.79589101     3.64194089     1.02423128
C     -3.13996383     2.32028940     0.75205157
C     -2.56753768     2.05747106    -0.49772460
C     -1.98461517     0.81565491    -0.76278871
C     -1.96576523    -0.18127144     0.21990610
C     -2.56629877     0.06930284     1.45869349
C     -3.14852154     1.31181854     1.72257617
C     -1.37147587    -1.48467971    -0.05823535
C     -2.04204748    -2.68956087    -0.16232179
C     -1.09497403    -3.63422080    -0.60835811
N      0.10674637    -3.05758134    -0.76838538
N     -0.03535519    -1.76594555    -0.34998086
C      1.13638246    -0.94556166    -0.26220228
C      1.15356595     0.27116907     0.43310045
C      2.32339882     1.03839770     0.49409385
C      3.48401935     0.58947378    -0.13807744
C      3.49602445    -0.63424205    -0.80632454
C      2.32628990    -1.39742800    -0.86592087
S      4.96834895     1.54427981    -0.03125216
N      4.87552856     2.48428790    -1.41934914
O      6.10817557     0.67677808    -0.21389961
O      4.86428999     2.46460160     1.07703737
C     -1.34791927    -5.08641550    -0.91197146
F     -1.12572818    -5.39086357    -2.21809273
F     -2.63845285    -5.43804404    -0.65139298
F     -0.56909002    -5.91710749    -0.16964442
H     -3.30447006     4.44434861     0.46399842
H     -4.85062269     3.60270251     0.73527092
H     -3.72868232     3.89972281     2.08641755
H     -2.57472109     2.81775761    -1.27595616
H     -1.55013814     0.63358401    -1.74348888
H     -2.58156960    -0.69751398     2.23006162
H     -3.61087978     1.48675397     2.69183373
H     -3.09893431    -2.85271838     0.00742185
H      0.29308620     0.64554278     0.97617602
H      2.31947782     1.97663451     1.04571193
H      4.40337922    -1.00356917    -1.27936346
H      2.35864085    -2.34790852    -1.39780140
H      4.82124964     3.47077573    -1.16469992
H      5.65504997     2.26134396    -2.03897484
