30
diclofenac mw=296.15 tier=M smiles=OC(=O)Cc1ccccc1Nc1c(Cl)cccc1Cl ETKDGv3+MMFF n_conf=16 seed=20240624 prune_rms=0.5 conf_id=0 rdkit=2026.03.5
O     -3.74678512     2.55097359     0.26544674
C     -2.77855892     1.62877902     0.45837600
O     -2.05597027     1.70451404     1.43982591
C     -2.71743222     0.62693685    -0.66869017
C     -1.97891365    -0.65128883    -0.32793185
C     -2.69279228    -1.86218210    -0.28181259
C     -2.04266731    -3.06275918    -0.00010316
C     -0.67359368    -3.06931827     0.24247916
C      0.04765350    -1.87522562     0.20243045
C     -0.58648164    -0.65940690    -0.09611329
N      0.12032592     0.57667278    -0.06731180
C      1.52952378     0.73765788    -0.21267897
C      2.22352734     0.32505707    -1.36887215
Cl     1.40963518    -0.32619509    -2.75245559
C      3.61352661     0.47491977    -1.46639847
C      4.33723390     1.04399532    -0.42061701
C      3.67181780     1.47331347     0.72409220
C      2.28465525     1.32416948     0.82448007
Cl     1.51848659     1.87375599     2.27628249
H     -3.66399058     3.14513787     1.04086099
H     -3.74766710     0.38525881    -0.95782046
H     -2.24129747     1.10232196    -1.53409268
H     -3.76414873    -1.87910056    -0.47021880
H     -2.60523731    -3.99214900     0.03136737
H     -0.16459594    -4.00204541     0.46985339
H      1.11169135    -1.90621819     0.41849972
H     -0.19491335     1.07350467     0.77921985
H      4.13544509     0.15585793    -2.36597144
H      5.41533243     1.15980047    -0.50241747
H      4.23619083     1.92326216     1.53744547
