40
diphenhydramine mw=255.36 tier=M smiles=CN(C)CCOC(c1ccccc1)c1ccccc1 ETKDGv3+MMFF n_conf=16 seed=20240624 prune_rms=0.5 conf_id=0 rdkit=2026.03.5
C      3.93936385     1.99307110     0.32973488
N      3.99811317     0.53089674     0.39361097
C      5.03942092     0.12164198     1.34060615
C      2.70254039    -0.05010373     0.79587062
C      1.59651506     0.09075755    -0.26057230
O      0.43014134    -0.59358284     0.20902193
C     -0.67628234    -0.49002727    -0.70298331
C     -1.41291664     0.82187508    -0.47462614
C     -1.79160766     1.22405345     0.81650806
C     -2.47003497     2.42689675     1.01747469
C     -2.78006847     3.24227459    -0.06884132
C     -2.41331632     2.85593702    -1.35655095
C     -1.73469705     1.65273583    -1.55991744
C     -1.59138797    -1.70062533    -0.55105302
C     -2.47503624    -2.04079027    -1.59041884
C     -3.33188882    -3.13701766    -1.47102360
C     -3.32103690    -3.90776171    -0.31094793
C     -2.45601160    -3.58222730     0.73108986
C     -1.59916431    -2.48576055     0.61327971
H      4.91904076     2.40502870     0.06113290
H      3.63149868     2.43724556     1.28323615
H      3.24839032     2.32812829    -0.44993214
H      6.01544777     0.51393916     1.03342231
H      4.83215849     0.46906865     2.35936946
H      5.13589496    -0.96971203     1.36002068
H      2.35583143     0.37254698     1.74878951
H      2.82890202    -1.12569645     0.98124833
H      1.35494867     1.14473409    -0.42924405
H      1.92456803    -0.35911964    -1.20494181
H     -0.27578097    -0.52428487    -1.72593132
H     -1.55523543     0.59421964     1.67189134
H     -2.75811728     2.72475828     2.02209729
H     -3.31025549     4.17779409     0.08834283
H     -2.65821848     3.49155001    -2.20352510
H     -1.45909759     1.36777317    -2.57261184
H     -2.50409321    -1.44700856    -2.50125039
H     -4.01011526    -3.38691247    -2.28255614
H     -3.98835054    -4.76016761    -0.21733335
H     -2.44734166    -4.18035391     1.63834606
H     -0.93272067    -2.24577454     1.43916725
