34
fluconazole mw=306.27 tier=L smiles=OC(Cn1cncn1)(Cn1cncn1)c1ccc(F)cc1F ETKDGv3+MMFF n_conf=16 seed=20240624 prune_rms=0.5 conf_id=0 rdkit=2026.03.5
O      1.38770007     0.19873865    -1.10966994
C      0.47837263    -0.08207247    -0.02654850
C      1.24615082    -0.78226312     1.13401306
N      2.25251774     0.04159437     1.76983914
C      2.47813884     0.21570537     3.09703066
N      3.47472991     1.05410427     3.26033459
C      3.84247097     1.35756380     1.98098041
N      3.11058094     0.76963890     1.02809703
C     -0.08914287     1.28352131     0.44733659
N     -0.96293627     1.96070353    -0.49041575
C     -0.69958932     2.37210639    -1.75912935
N     -1.74129729     3.01441531    -2.23671871
C     -2.62647699     2.98050576    -1.19939526
N     -2.19428895     2.35327980    -0.10169788
C     -0.55438800    -1.10027775    -0.53371551
C     -1.91461627    -1.05217908    -0.17508542
C     -2.81841081    -2.00849240    -0.65139549
C     -2.37225509    -3.03584980    -1.47147846
F     -3.24189103    -3.95159516    -1.91599080
C     -1.03606551    -3.13626105    -1.81571913
C     -0.14327826    -2.18037493    -1.34085711
F      1.15458894    -2.34421084    -1.63566251
H      2.23996630     0.49425851    -0.71653251
H      1.78823879    -1.66529355     0.77290368
H      0.55044169    -1.10845095     1.91734165
H      1.91299829    -0.27155990     3.87995275
H      4.65916773     2.02687919     1.73938589
H     -0.64781004     1.16089679     1.38391192
H      0.71629901     2.00238036     0.63845182
H      0.23288856     2.18604390    -2.27452316
H     -3.61116101     3.42787414    -1.24469766
H     -2.31350031    -0.27586152     0.47450542
H     -3.87066502    -1.95411906    -0.38586070
H     -0.68747818    -3.95134878    -2.43899075
