29
gabapentin mw=171.24 tier=S smiles=NCC1(CC(=O)O)CCCCC1 ETKDGv3+MMFF n_conf=16 seed=20240624 prune_rms=0.5 conf_id=0 rdkit=2026.03.5
N      2.36033572     1.25095022    -0.24600487
C      1.12229136     1.33097151     0.52124380
C      0.19625659     0.08774254     0.37351510
C      0.81548978    -1.15502533     1.07520046
C      2.25672880    -1.48186566     0.78304174
O      3.19088598    -1.34843202     1.55866198
O      2.44889093    -2.03729352    -0.42730124
C     -0.10175774    -0.18456387    -1.13141597
C     -1.46494756    -0.83298214    -1.35408703
C     -2.60068096     0.08698511    -0.90535623
C     -2.19893602     1.02756096     0.23061615
C     -1.14234240     0.39241972     1.12859368
H      2.15681574     1.29483534    -1.24382272
H      2.93840096     2.06582437    -0.04022656
H      0.58796835     2.23666879     0.21051765
H      1.38169920     1.46816850     1.57812371
H      0.22276257    -2.05592054     0.87210755
H      0.76266652    -1.01439777     2.16436095
H      3.42214106    -2.14077095    -0.46688118
H      0.67236082    -0.81053443    -1.58382075
H     -0.08807072     0.75922626    -1.69358271
H     -1.51789127    -1.78027964    -0.80429800
H     -1.59622415    -1.08221412    -2.41333452
H     -3.45257761    -0.53048926    -0.59581260
H     -2.95118113     0.68840446    -1.75285054
H     -3.08637277     1.29005215     0.81777353
H     -1.81394531     1.96609723    -0.18594522
H     -1.56666201    -0.53416762     1.53924212
H     -0.95410474     1.04302970     1.99174173
