33
ibuprofen mw=206.28 tier=M smiles=CC(C)Cc1ccc(cc1)C(C)C(=O)O ETKDGv3+MMFF n_conf=16 seed=20240624 prune_rms=0.5 conf_id=0 rdkit=2026.03.5
C     -3.10747393     1.57235072    -0.54370888
C     -3.22883989     0.05224997    -0.40927258
C     -4.70002411    -0.33399875    -0.23770799
C     -2.40532218    -0.49085385     0.77498861
C     -0.91270046    -0.34930778     0.59616314
C     -0.19269239     0.59880569     1.33087603
C      1.18761219     0.73377579     1.15777441
C      1.88084287    -0.07782806     0.24723278
C      1.15432753    -1.02713392    -0.48575738
C     -0.22586336    -1.16076881    -0.31371265
C      3.38479609     0.08073075     0.08525766
C      4.13445112    -1.20353242     0.44055055
C      3.79782652     0.53511466    -1.30446739
O      3.25719221     0.29290615    -2.37082848
O      4.94130426     1.25661104    -1.28648546
H     -2.07810663     1.87170218    -0.76414249
H     -3.42062440     2.07885832     0.37559517
H     -3.73589758     1.94015617    -1.36206337
H     -2.87176190    -0.40123927    -1.34262295
H     -4.81278873    -1.42200044    -0.18398761
H     -5.12034251     0.09668507     0.67755382
H     -5.29707855     0.02073805    -1.08455332
H     -2.62311134    -1.55756001     0.92037915
H     -2.71811300     0.00221647     1.70486505
H     -0.70244109     1.24480480     2.04211095
H      1.71557830     1.48185258     1.74545629
H      1.65393781    -1.66544158    -1.21207715
H     -0.76254987    -1.90256320    -0.90101560
H      3.71331165     0.86543724     0.78062016
H      5.21768798    -1.04112872     0.41036450
H      3.91138495    -2.01405062    -0.26240308
H      3.87257560    -1.54770295     1.44707343
H      5.09290283     1.47011472    -2.23149838
