68
imatinib formula=C29H31N7O tier=XL smiles=CC1=C(C=C(C=C1)NC(=O)C2=CC=C(C=C2)CN3CCN(CC3)C)NC4=NC=CC(=N4)C5=CN=CC=C5 ETKDGv3+MMFF n_conf=16 seed=20240624 prune_rms=0.5 conf_id=0 rdkit=2026.03.6
C      5.54909383    -3.97312137    -1.54793784
C      4.17183437    -3.46458216    -1.21010064
C      3.97375661    -2.20844425    -0.58897543
C      2.65495499    -1.82400194    -0.27580403
C      1.55393572    -2.62751572    -0.59176031
C      1.77307052    -3.85160355    -1.22570982
C      3.06735704    -4.26822417    -1.53016960
N      0.21055275    -2.28217721    -0.32538957
C     -0.26370709    -1.16517433     0.33794774
O      0.39343197    -0.28742570     0.88225477
C     -1.74988676    -1.07498525     0.41399312
C     -2.56697021    -1.46766001    -0.65287864
C     -3.95589184    -1.36680758    -0.53970408
C     -4.54476357    -0.86205280     0.63043247
C     -3.71801367    -0.45577639     1.68727086
C     -2.32898572    -0.55577377     1.57738677
C     -6.05288954    -0.75755105     0.74635150
N     -6.65717070     0.09582495    -0.28821907
C     -8.13220224     0.00065538    -0.27536779
C     -8.84983107     1.15106232     0.46608938
N     -8.51221068     2.50172829    -0.02331070
C     -7.22162274     2.50967533    -0.74348883
C     -6.21384344     1.50383671    -0.14826738
C     -9.56818202     3.05978225    -0.86310896
N      5.09113347    -1.42667082    -0.24842220
C      5.26765503    -0.25450710     0.48118244
N      4.29146607     0.27395037     1.22346862
C      4.55995746     1.40266788     1.89514193
C      5.77955783     2.02831644     1.85935742
C      6.74705459     1.42608171     1.08076933
N      6.49694132     0.28274386     0.40109924
C      8.11070373     1.96522305     0.93523640
C      9.20017168     1.12476726     0.69161308
N     10.48908795     1.53104226     0.55264451
C     10.71813163     2.85473363     0.64894860
C      9.72205309     3.78643396     0.87777163
C      8.40946892     3.33384309     1.02054994
H      5.51597607    -4.98948517    -1.95490385
H      6.17577938    -4.00336674    -0.65068216
H      6.01539078    -3.33004300    -2.30118003
H      2.48952891    -0.86755288     0.20565918
H      0.94360495    -4.50239487    -1.48802171
H      3.20956572    -5.23111457    -2.01586652
H     -0.47658071    -2.97003594    -0.60229013
H     -2.14075116    -1.82018124    -1.58786519
H     -4.58733092    -1.66071790    -1.37665789
H     -4.14812913    -0.05000818     2.60037150
H     -1.69659517    -0.22844420     2.40057115
H     -6.33854847    -0.41384112     1.74937656
H     -6.43712212    -1.78239087     0.65329337
H     -8.46805705     0.00457595    -1.32077737
H     -8.46848206    -0.96136803     0.13094079
H     -9.93317143     0.97789124     0.44648575
H     -8.56553462     1.10669926     1.52546911
H     -7.35912214     2.27429824    -1.80798383
H     -6.79602638     3.51854384    -0.68976118
H     -6.05554344     1.76729188     0.90671219
H     -5.25248457     1.62580515    -0.66065503
H     -9.76087794     2.44440095    -1.74925638
H     -9.30379680     4.07036650    -1.19396154
H    -10.50148804     3.14992347    -0.29634795
H      5.95292691    -1.62993891    -0.72999151
H      3.73545037     1.79638850     2.48232567
H      5.95429471     2.92901132     2.43041161
H      9.06438159     0.04848766     0.60409524
H     11.75451487     3.15706875     0.53024795
H      9.95843112     4.84299722     0.93801000
H      7.62459752     4.06882009     1.17933044
