33
ketoprofen mw=254.28 tier=M smiles=CC(C(=O)O)c1cccc(c1)C(=O)c1ccccc1 ETKDGv3+MMFF n_conf=16 seed=20240624 prune_rms=0.5 conf_id=0 rdkit=2026.03.5
C     -2.97924589    -0.46482941     2.12144147
C     -2.49063540     0.40608854     0.96083105
C     -3.60976457     1.21332563     0.32755878
O     -3.49525256     2.32825421    -0.15912422
O     -4.79863813     0.58034786     0.28050866
C     -1.71530966    -0.38634328    -0.07830024
C     -2.28661060    -1.48889026    -0.73367942
C     -1.57175517    -2.19236637    -1.70480218
C     -0.27288522    -1.80761214    -2.03153355
C      0.31882565    -0.72149456    -1.38022022
C     -0.40784892    -0.00172241    -0.42130369
C      1.69958853    -0.33301086    -1.76656187
O      2.06332475    -0.48289262    -2.93025037
C      2.65199828     0.23062812    -0.77712549
C      2.68988807    -0.22353607     0.54700374
C      3.60878514     0.32480321     1.44415020
C      4.49575992     1.31451853     1.01933484
C      4.47425355     1.75292581    -0.30466069
C      3.55812549     1.20764348    -1.20500732
H     -3.49922018     0.14599151     2.86789396
H     -3.67732195    -1.24376605     1.79641326
H     -2.13702696    -0.96090476     2.61654965
H     -1.81967304     1.14974848     1.41354156
H     -5.37974982     1.21221419    -0.19385651
H     -3.30428943    -1.80222556    -0.50572392
H     -2.03094223    -3.03635962    -2.21391993
H      0.27642894    -2.35194657    -2.79723319
H      0.03274863     0.87579185     0.04785558
H      2.02606295    -1.01345736     0.88835346
H      3.64115776    -0.02649232     2.47265774
H      5.21367845     1.73721661     1.71828382
H      5.17467050     2.51450349    -0.63849920
H      3.55087309     1.54384872    -2.24001884
