25
levodopa mw=197.19 tier=S smiles=NC(Cc1ccc(O)c(O)c1)C(=O)O ETKDGv3+MMFF n_conf=16 seed=20240624 prune_rms=0.5 conf_id=0 rdkit=2026.03.5
N      1.70224170     1.22864778    -1.23164043
C      2.02284343     0.03569766    -0.40760612
C      1.12086597    -0.02561228     0.83795507
C     -0.34357111    -0.22651767     0.50907721
C     -0.83916334    -1.51475869     0.24232385
C     -2.18426726    -1.70482357    -0.08077985
C     -3.02855030    -0.60685144    -0.13867362
O     -4.34328962    -0.79232780    -0.45747004
C     -2.55071200     0.67435805     0.12149833
O     -3.43736129     1.71285641     0.04230630
C     -1.21334099     0.87434292     0.44526566
C      3.51048206     0.06830063    -0.02777425
O      4.38884013     0.70061509    -0.59761241
O      3.84013540    -0.76895302     0.97537435
H      0.82731496     1.05623475    -1.72687937
H      2.42679175     1.32802952    -1.94683093
H      1.88342865    -0.85709334    -1.02948693
H      1.24508435     0.88390341     1.44166565
H      1.42863034    -0.84689741     1.49820667
H     -0.18048250    -2.37946807     0.28819224
H     -2.56961820    -2.69912736    -0.28448799
H     -4.72818637     0.10634790    -0.43086960
H     -2.95744210     2.53251482     0.25323696
H     -0.83073139     1.87228526     0.64068087
H      4.81005772    -0.65170357     1.06432840
