39
lidocaine mw=234.34 tier=M smiles=CCN(CC)CC(=O)Nc1c(C)cccc1C ETKDGv3+MMFF n_conf=16 seed=20240624 prune_rms=0.5 conf_id=0 rdkit=2026.03.5
C     -2.73616909    -2.70004088     1.78473004
C     -2.48753807    -1.96983241     0.46766839
N     -2.52448197    -0.50028583     0.58475238
C     -2.43377120     0.15871459    -0.72860810
C     -3.70601994     0.00490703    -1.55659288
C     -1.51692044     0.03476864     1.53135350
C     -0.06178152    -0.25749752     1.12767104
O      0.48334745    -1.31289551     1.43839157
N      0.52319712     0.79204068     0.43172346
C      1.83633428     0.82580098    -0.10106791
C      2.53340138     2.05950438    -0.02551939
C      1.93277402     3.29129814     0.60221763
C      3.84676244     2.15147526    -0.51604917
C      4.47045310     1.04841780    -1.08337210
C      3.77570961    -0.14987690    -1.19820106
C      2.44756232    -0.27214878    -0.74493032
C      1.76417884    -1.58049774    -1.04060376
H     -1.90189844    -2.58520559     2.48265999
H     -3.65017850    -2.34075506     2.26905708
H     -2.85734225    -3.77232100     1.59727387
H     -1.54475857    -2.31506260     0.02753533
H     -3.28251840    -2.29773117    -0.21091895
H     -1.57519871    -0.20691554    -1.30432310
H     -2.28800903     1.23689972    -0.58459867
H     -4.58748629     0.32025156    -0.98842616
H     -3.64401811     0.63247563    -2.45205676
H     -3.85793010    -1.02516890    -1.89121724
H     -1.66145304     1.11709804     1.64103433
H     -1.67549297    -0.35964748     2.54130041
H      0.08822591     1.69011717     0.58793075
H      2.64535565     4.12287342     0.62652409
H      1.63753572     3.08729300     1.63660236
H      1.06222044     3.62331682     0.02747596
H      4.39879604     3.08639736    -0.44663716
H      5.49077978     1.12416882    -1.44941342
H      4.26916891    -0.99748645    -1.67084650
H      1.96858289    -2.30915097    -0.25138472
H      0.68655038    -1.45598757    -1.17610727
H      2.13203036    -1.99931112    -1.98502755
