94
lopinavir formula=C37H48N4O5 tier=XL smiles=CC1=C(C(=CC=C1)C)OCC(=O)N[C@@H](CC2=CC=CC=C2)[C@H](C[C@H](CC3=CC=CC=C3)NC(=O)[C@H](C(C)C)N4CCCNC4=O)O ETKDGv3+MMFF n_conf=16 seed=20240624 prune_rms=0.5 conf_id=0 rdkit=2026.03.6
C     -2.95794440     3.14310680     1.94697399
C     -2.92571165     2.56951559     3.33356081
C     -2.21504263     1.39903870     3.65037868
C     -2.17517226     0.90700428     4.96588516
C     -2.91989565     1.56001788     5.95584010
C     -3.66279271     2.69788008     5.64626454
C     -3.66477583     3.19957279     4.34513422
C     -1.39700951    -0.33142785     5.31105538
O     -1.48103318     0.73455139     2.70136906
C     -2.31293323    -0.00907914     1.81556811
C     -1.74024256    -1.40454554     1.54052733
O     -1.15361944    -2.07738491     2.38409241
N     -1.99919230    -1.86979283     0.26284249
C     -1.58858587    -3.20258472    -0.17969527
C     -2.55795159    -3.82031667    -1.22248646
C     -2.84487735    -3.04893480    -2.49240373
C     -2.35477393    -3.50397237    -3.72492303
C     -2.62166782    -2.80384231    -4.90285190
C     -3.39842814    -1.64892545    -4.86633360
C     -3.92447038    -1.20554343    -3.65560105
C     -3.66017825    -1.90824051    -2.47846916
C     -0.06584035    -3.34256277    -0.48179790
C      0.49327221    -2.76707136    -1.79179388
C      0.41133860    -1.24426973    -1.93112367
C      0.66692987    -0.75426802    -3.37944616
C      2.07236029    -0.97523787    -3.89350225
C      3.05510496     0.00989232    -3.71591209
C      4.36033516    -0.20294525    -4.16002010
C      4.69511660    -1.39779595    -4.79324208
C      3.72430447    -2.37885378    -4.98626613
C      2.41842994    -2.16893444    -4.54040129
N      1.34210833    -0.61307204    -0.99743581
C      1.05901497     0.58280747    -0.36450362
O     -0.07685734     1.05353667    -0.37190757
C      2.29696426     1.24526240     0.32010541
C      2.88176006     0.49090635     1.55110982
C      3.65081537    -0.77819273     1.16286038
C      1.85222536     0.14582614     2.62520374
N      2.16242406     2.69438926     0.60295871
C      0.91786224     3.21002789     1.16466985
C      1.15462821     4.45331116     1.99891327
C      1.86492247     5.45202468     1.11497776
N      3.03155404     4.85882251     0.51428242
C      3.17018203     3.54330906     0.19317535
O      4.17856665     3.17895019    -0.40661624
O      0.24377182    -4.75052997    -0.49773056
H     -2.01259741     2.97672115     1.42437974
H     -3.11563943     4.22673450     1.97546816
H     -3.76993414     2.68800874     1.37166507
H     -2.92459501     1.18408148     6.97644426
H     -4.23752297     3.19731929     6.42203702
H     -4.24507910     4.09318249     4.12564670
H     -1.24305126    -0.41355239     6.39233179
H     -1.93904101    -1.22006231     4.97397782
H     -0.40538169    -0.31171700     4.84806947
H     -3.32623769    -0.16300877     2.21176367
H     -2.39277782     0.54376283     0.87420965
H     -2.19227971    -1.17009884    -0.44236595
H     -1.73723514    -3.84245738     0.70433194
H     -2.21070026    -4.82893982    -1.48139226
H     -3.52903679    -3.97788025    -0.73072195
H     -1.75899069    -4.41371388    -3.77697006
H     -2.22871140    -3.16464213    -5.85000813
H     -3.60983438    -1.10575227    -5.78376573
H     -4.55497530    -0.32026720    -3.63050291
H     -4.11942788    -1.56886738    -1.55274148
H      0.49340814    -2.91515514     0.35962455
H      0.01458033    -3.26124306    -2.63886729
H      1.54550250    -3.07820206    -1.86230310
H     -0.60026798    -0.91401787    -1.69202388
H      0.44502150     0.32021720    -3.43688433
H     -0.04407093    -1.23310727    -4.06358690
H      2.81152703     0.95407524    -3.23143740
H      5.11432588     0.56715876    -4.01450426
H      5.71149693    -1.56124279    -5.14197307
H      3.98454806    -3.30788865    -5.48697716
H      1.67327560    -2.94463122    -4.70229326
H      2.32162061    -0.83026549    -1.14727851
H      3.06875788     1.17789050    -0.45939458
H      3.62198504     1.15480407     2.01983286
H      4.35803109    -0.58153855     0.35068820
H      4.22920317    -1.14656829     2.01782135
H      2.98103125    -1.58719527     0.85710263
H      1.04496056    -0.46915667     2.22089805
H      1.42138493     1.04452161     3.07184504
H      2.31865516    -0.41742545     3.44134525
H      0.24988671     3.44401581     0.32768833
H      0.44304260     2.44752172     1.78256781
H      1.77753602     4.20676010     2.86750383
H      0.20876800     4.86274353     2.36781523
H      1.21552091     5.79675626     0.30288313
H      2.18715096     6.32606626     1.68892927
H      3.76450942     5.45083548     0.14587347
H      1.18666208    -4.83600884    -0.27003750
