20
metformin mw=129.17 tier=S smiles=CN(C)C(=N)NC(=N)N ETKDGv3+MMFF n_conf=16 seed=20240624 prune_rms=0.5 conf_id=0 rdkit=2026.03.5
C     -2.33741545     0.22564170     1.14554854
N     -1.18800157    -0.30571315     0.41263293
C     -1.56582655    -1.30782368    -0.59087590
C     -0.13163874     0.52798130     0.11232355
N     -0.24254634     1.79344796    -0.12475461
N      1.07162773    -0.11386040     0.10612111
C      2.32031367     0.28580463    -0.23157901
N      2.66021886     1.43502925    -0.70187037
N      3.27949698    -0.65205344    -0.04912109
H     -2.00772718     0.87745804     1.96179333
H     -2.99786925     0.79468730     0.48265288
H     -2.91498829    -0.58989661     1.59367503
H     -0.69078359    -1.84503417    -0.97094089
H     -2.07172155    -0.82879626    -1.43600618
H     -2.24068993    -2.05301727    -0.15640167
H     -1.22532029     2.06214530    -0.08845935
H      1.00890400    -1.08254742     0.36992673
H      1.77634494     1.98028815    -0.74041515
H      3.32546482    -0.98004427     0.90777730
H      4.17215772    -0.22369697    -0.28716692
