44
metoprolol mw=267.36 tier=M smiles=COCCc1ccc(OCC(O)CNC(C)C)cc1 ETKDGv3+MMFF n_conf=16 seed=20240624 prune_rms=0.5 conf_id=0 rdkit=2026.03.5
C      7.24107058     0.69675305     0.77123812
O      6.25995818    -0.29517454     0.50116598
C      5.80321462    -0.28463923    -0.85423181
C      4.72313048     0.77377852    -1.10934701
C      3.36460367     0.38117711    -0.57324866
C      3.12112137     0.35274374     0.80407385
C      1.86400746    -0.00949971     1.29361407
C      0.82876767    -0.34619186     0.42012591
O     -0.34800702    -0.68160806     1.03055192
C     -1.46358818    -0.97448262     0.17768763
C     -2.65825366    -1.29561355     1.08413571
O     -2.34097729    -2.45384005     1.87407425
C     -3.94770691    -1.58766744     0.29178189
N     -4.46658733    -0.52782699    -0.58042695
C     -4.79632249     0.73516739     0.08942799
C     -5.90899690     0.57788068     1.12693929
C     -5.23190704     1.73958984    -0.98162871
C      1.06425717    -0.32172803    -0.95380208
C      2.32397988     0.03981613    -1.44659881
H      6.83974142     1.70157176     0.61665987
H      8.12428420     0.54290456     0.14391859
H      7.54096860     0.60361211     1.81860944
H      6.65639917    -0.12259473    -1.52397999
H      5.41055436    -1.28437922    -1.07178378
H      4.99793636     1.74058845    -0.67357625
H      4.64403896     0.93236768    -2.19206903
H      3.91221637     0.60404057     1.50757592
H      1.69488527    -0.03029499     2.36723985
H     -1.68503540    -0.10503542    -0.45068432
H     -1.22675641    -1.84992699    -0.43889442
H     -2.81934457    -0.47957368     1.79704507
H     -1.45645916    -2.28393300     2.25205443
H     -4.73065832    -1.91598276     0.98643601
H     -3.77220321    -2.47111085    -0.33647176
H     -3.82158508    -0.35739586    -1.35000153
H     -3.90563315     1.14690227     0.57747687
H     -6.19893879     1.55342743     1.53281012
H     -6.80285365     0.11980719     0.68893154
H     -5.58795293    -0.03909493     1.97212842
H     -4.43588172     1.90196233    -1.71715790
H     -6.12408148     1.39553400    -1.51725920
H     -5.46440406     2.71029048    -0.53009625
H      0.29503725    -0.58190195    -1.67264442
H      2.48396173     0.04958114    -2.52260538
