77
montelukast formula=C35H36ClNO3S tier=XL smiles=CC(C)(C1=CC=CC=C1CC[C@H](C2=CC=CC(=C2)/C=C/C3=NC4=C(C=CC(=C4)Cl)C=C3)SCC5(CC5)CC(=O)O)O ETKDGv3+MMFF n_conf=16 seed=20240624 prune_rms=0.5 conf_id=0 rdkit=2026.03.6
C     -4.92354295    -2.53502427     2.49893036
C     -5.50821558    -2.50349497     1.07836859
C     -5.92199731    -1.08482831     0.68008650
C     -4.63724909    -3.15246943    -0.01635814
C     -5.30146898    -3.96444265    -0.97222958
C     -4.61847460    -4.66800416    -1.96216712
C     -3.24092526    -4.57970861    -2.03154131
C     -2.55932590    -3.75192312    -1.14198515
C     -3.23259377    -2.98621780    -0.16203938
C     -2.41758493    -2.04671165     0.70948098
C     -1.13598510    -1.42076190     0.11943780
C     -1.35358442    -0.50931268    -1.11228235
C     -0.08080649    -0.12664912    -1.85865080
C     -0.16244125     0.18980224    -3.22568333
C      0.97135293     0.57094355    -3.94261784
C      2.20910775     0.64046882    -3.30559347
C      2.32609366     0.31986926    -1.95006466
C      1.17675394    -0.04833152    -1.23361429
C      3.63912751     0.43762124    -1.30368966
C      4.12572446    -0.46402935    -0.43443536
C      5.44542891    -0.35318983     0.20564965
N      6.18350967     0.74758927    -0.07198883
C      7.39228203     0.87832324     0.49970804
C      7.91951134    -0.09065971     1.37980456
C      9.18925389     0.08733956     1.95520836
C      9.93705421     1.22480481     1.65941670
C      9.41429392     2.17767981     0.79186528
C      8.15471995     2.00215121     0.22038417
Cl    10.33198093     3.58571230     0.42147649
C      7.14004303    -1.21915866     1.65310606
C      5.88827307    -1.35341044     1.06039269
S     -2.38109654     0.97583740    -0.73077728
C     -1.20405297     1.98808802     0.21756203
C     -1.94148213     3.15010089     0.87312151
C     -1.50934284     3.50805577     2.28594804
C     -2.83528979     2.83634914     2.06163807
C     -2.30036344     4.26992676    -0.10803297
C     -2.97931990     5.52374106     0.38966526
O     -3.39492270     5.79248100     1.50255684
O     -3.11831324     6.43077638    -0.60472766
O     -6.74009347    -3.24799352     1.20938141
H     -4.50711845    -3.52282380     2.72872669
H     -5.70939878    -2.35120734     3.24266767
H     -4.15047488    -1.78575714     2.67527683
H     -6.61556789    -0.66069556     1.41571168
H     -5.06829386    -0.40880785     0.58922264
H     -6.45391226    -1.08580185    -0.27896990
H     -6.38735681    -4.05717029    -0.95422706
H     -5.16633722    -5.28722760    -2.66698428
H     -2.69406607    -5.13829161    -2.78621589
H     -1.47810712    -3.70755788    -1.24412884
H     -3.04220808    -1.21333239     1.03173014
H     -2.13183513    -2.60751176     1.60838651
H     -0.42707698    -2.21875258    -0.13371654
H     -0.64802639    -0.85824558     0.92503761
H     -1.95581373    -1.08273559    -1.82674868
H     -1.12207648     0.15237297    -3.73960031
H      0.88867256     0.81963836    -4.99756384
H      3.08359037     0.94278663    -3.87772387
H      1.26966683    -0.25240435    -0.17020127
H      4.23099943     1.30540521    -1.58931188
H      3.54605356    -1.34512178    -0.17772382
H      9.59998910    -0.65677112     2.63394997
H     10.91882460     1.36104869     2.10510853
H      7.75352084     2.75177354    -0.45661335
H      7.49894774    -1.99588854     2.32350081
H      5.28077764    -2.22766796     1.26847638
H     -0.72528032     1.36903388     0.98137401
H     -0.42492355     2.37698066    -0.44521658
H     -1.51389444     4.54345404     2.60785549
H     -0.72663067     2.92768121     2.76356917
H     -2.93930988     1.80384978     2.37919887
H     -3.73872445     3.41508363     2.21676684
H     -1.36877185     4.59194667    -0.59065001
H     -2.95857308     3.85798729    -0.88171192
H     -3.57641973     7.18045149    -0.17031610
H     -6.48688311    -4.16706154     1.40524182
