31
naproxen mw=230.26 tier=M smiles=COc1ccc2cc(ccc2c1)C(C)C(=O)O ETKDGv3+MMFF n_conf=16 seed=20240624 prune_rms=0.5 conf_id=0 rdkit=2026.03.5
C      5.64094463     0.12570615    -0.33907436
O      4.58736848    -0.47203984     0.40559127
C      3.30969720    -0.15098269     0.03672343
C      2.94666001     0.70098635    -1.00357231
C      1.59505237     0.94277002    -1.27381553
C      0.58561964     0.33703894    -0.50965935
C     -0.77617135     0.57098170    -0.77083282
C     -1.78373861    -0.03944606    -0.00564316
C     -1.40588906    -0.88600846     1.04420149
C     -0.05657866    -1.12783505     1.31411710
C      0.94950952    -0.52509019     0.54520601
C      2.31070842    -0.75779286     0.80364141
C     -3.24393656     0.24316340    -0.31246294
C     -4.05021482    -1.03083611    -0.57955355
C     -3.88020355     1.11700823     0.75328724
O     -3.87787852     2.33903459     0.76841752
O     -4.44359996     0.43651722     1.77160857
H      5.62170058     1.21651225    -0.24492364
H      5.60591566    -0.18198501    -1.38939098
H      6.58827180    -0.22756194     0.07951595
H      3.68588974     1.19485257    -1.62484468
H      1.33602681     1.61293818    -2.09073363
H     -1.05330667     1.24246944    -1.58215536
H     -2.15732051    -1.36430719     1.66950642
H      0.20433908    -1.79161615     2.13565899
H      2.60597053    -1.42040656     1.61444207
H     -3.30470579     0.82934554    -1.24027217
H     -5.08654789    -0.78304474    -0.83511448
H     -3.62062916    -1.59487162    -1.41491196
H     -4.08129664    -1.69767129     0.28879189
H     -4.75165672     1.14217117     2.37867614
