26
nicotine mw=162.24 tier=S smiles=CN1CCCC1c1cccnc1 ETKDGv3+MMFF n_conf=16 seed=20240624 prune_rms=0.5 conf_id=0 rdkit=2026.03.5
C     -2.26248634     0.58805489     1.66441776
N     -1.07003051     0.73741516     0.82995438
C     -1.40375946     1.31961810    -0.47763041
C     -1.70627667     0.15622393    -1.41217862
C     -1.21469085    -1.08807548    -0.68395591
C     -0.44049682    -0.56781757     0.53191848
C      1.05987584    -0.40598431     0.36475994
C      1.73312279    -0.39887193    -0.86116169
C      3.11846694    -0.24747129    -0.89699110
C      3.79764041    -0.10357848     0.30007585
N      3.19371653    -0.09484222     1.50451315
C      1.84630232    -0.23363050     1.50570640
H     -3.03955915    -0.02973843     1.20133939
H     -1.99768194     0.14183036     2.62940865
H     -2.69474622     1.57069847     1.88397868
H     -0.53149292     1.87035155    -0.85086790
H     -2.22703731     2.04186052    -0.43548011
H     -1.19385115     0.28372632    -2.37149911
H     -2.78036023     0.07643156    -1.61277905
H     -2.08941973    -1.65877684    -0.34509523
H     -0.64253515    -1.75492509    -1.33582152
H     -0.57801059    -1.27997134     1.35790451
H      1.19989491    -0.50048184    -1.80087407
H      3.65471386    -0.23904005    -1.83911854
H      4.87666652     0.01618768     0.32161696
H      1.39203491    -0.19919318     2.49340937
