43
omeprazole mw=345.42 tier=L smiles=COc1ccc2[nH]c(S(=O)Cc3ncc(C)c(OC)c3C)nc2c1 ETKDGv3+MMFF n_conf=16 seed=20240624 prune_rms=0.5 conf_id=0 rdkit=2026.03.5
C      7.68031852     0.04331128     0.33682173
O      6.77603633    -1.05454757     0.37045854
C      5.44057486    -0.75415822     0.29779828
C      4.59496569    -1.87052074     0.33941576
C      3.20103823    -1.74971315     0.27623313
C      2.69909080    -0.45422393     0.16913109
N      1.42466371     0.04048998     0.08378335
C      1.49521908     1.40821960     0.01310602
S      0.06361835     2.51166421    -0.14426037
O      0.46457284     3.84727395     0.41249285
C     -1.03473481     1.72117037     1.06700792
C     -1.87881246     0.64584297     0.42605866
N     -1.30379796    -0.59014308     0.37712755
C     -2.01176815    -1.59632507    -0.18711675
C     -3.27880092    -1.45270374    -0.72417984
C     -3.98674244    -2.62442528    -1.32947925
C     -3.85907339    -0.18576103    -0.63116421
O     -5.12067401     0.00104798    -1.14177177
C     -6.10530396    -0.18381024    -0.12160723
C     -3.15109053     0.90579186    -0.10245094
C     -3.75689570     2.28176321    -0.07507638
N      2.74782196     1.81573912     0.02139981
C      3.50580195     0.67588997     0.12655962
C      4.90138220     0.53335541     0.19035617
H      8.69582047    -0.35866244     0.40488973
H      7.52730607     0.70744868     1.19390631
H      7.60188680     0.59063829    -0.60835239
H      5.03545475    -2.86263226     0.42374258
H      2.55662866    -2.62067530     0.30989515
H      0.56692614    -0.49963037     0.09744977
H     -0.44062885     1.30511892     1.88832848
H     -1.66283469     2.49827606     1.51347957
H     -1.50549997    -2.55908550    -0.19667807
H     -4.67087006    -3.07042464    -0.60133483
H     -3.27436342    -3.39298453    -1.64852945
H     -4.55187230    -2.32602358    -2.21841084
H     -5.99116630     0.55210714     0.68128294
H     -7.08900392    -0.03737364    -0.57744044
H     -6.06986010    -1.19821545     0.28916632
H     -3.02853187     3.03737103    -0.38478384
H     -4.11295769     2.51416651     0.93338197
H     -4.60013341     2.37615323    -0.76628490
H      5.50628949     1.42919998     0.15479612
