20
paracetamol mw=151.16 tier=S smiles=CC(=O)Nc1ccc(O)cc1 ETKDGv3+MMFF n_conf=16 seed=20240624 prune_rms=0.5 conf_id=0 rdkit=2026.03.5
C     -3.61957390    -0.76505205     0.45411191
C     -2.17647166    -0.68875405     0.88773105
O     -1.84182055    -1.04492074     2.01150591
N     -1.36213347    -0.16456995    -0.10014793
C      0.03015678     0.05208062    -0.04038576
C      0.63954354     0.61001856    -1.17411631
C      2.01593289     0.85712718    -1.20015511
C      2.78519360     0.54395879    -0.08685217
O      4.12932408     0.76595633    -0.06417544
C      2.19925571    -0.00927148     1.04348416
C      0.82246859    -0.25556171     1.06739244
H     -4.13910537    -1.51959998     1.05183806
H     -3.69702630    -1.05453525    -0.59787767
H     -4.09486600     0.20775711     0.60453763
H     -1.81382801     0.10312762    -0.96502540
H      0.05234213     0.86083589    -2.05355637
H      2.46249403     1.28971337    -2.08954391
H      4.39684015     1.15297732    -0.91337736
H      2.80821111    -0.25158501     1.91008750
H      0.40306265    -0.68970257     1.96938503
