31
phenytoin mw=252.27 tier=M smiles=O=C1NC(=O)C(c2ccccc2)(c2ccccc2)N1 ETKDGv3+MMFF n_conf=16 seed=20240624 prune_rms=0.5 conf_id=0 rdkit=2026.03.5
O      0.54701358     4.18971905    -0.41503762
C      0.36787690     3.09566724     0.08867055
N      0.37422661     2.81807423     1.40739228
C      0.27494147     1.47563168     1.61365455
O      0.34060448     0.95778902     2.72220794
C      0.09298060     0.75773178     0.23769673
C     -1.27777407     0.06677558     0.19647537
C     -2.33867360     0.53523106    -0.60036711
C     -3.57234125    -0.12140472    -0.61189732
C     -3.77035825    -1.25438054     0.17239461
C     -2.73695670    -1.73230798     0.97231874
C     -1.50351354    -1.07820269     0.98585432
C      1.24732197    -0.17197509    -0.16492398
C      2.36532415    -0.40339837     0.65472924
C      3.39940011    -1.24766951     0.23859520
C      3.33851279    -1.87486054    -1.00246998
C      2.24267804    -1.66137464    -1.83188014
C      1.20881719    -0.81852866    -1.41904064
N      0.15029902     1.94027373    -0.60928993
H      0.54662360     3.49729350     2.12762442
H     -2.22746985     1.42112309    -1.22154758
H     -4.38161345     0.25561001    -1.23256387
H     -4.73116459    -1.76235455     0.16363156
H     -2.88945524    -2.61372578     1.59019491
H     -0.71339648    -1.47025510     1.62620443
H      2.45928393     0.05831597     1.63533027
H      4.25438829    -1.41642842     0.88921040
H      4.14381373    -2.53164574    -1.32089624
H      2.18960725    -2.15320167    -2.79990005
H      0.35953113    -0.67620669    -2.08563921
H      0.23947217     1.91868475    -1.61430721
