40
propranolol mw=259.34 tier=M smiles=CC(C)NCC(O)COc1cccc2ccccc12 ETKDGv3+MMFF n_conf=16 seed=20240624 prune_rms=0.5 conf_id=0 rdkit=2026.03.5
C      5.42788025    -0.44387833     0.72608358
C      4.61704565    -0.20442725    -0.54905999
C      5.29475930     0.87403996    -1.39666662
N      3.25046328     0.24540776    -0.26944257
C      2.36629559    -0.83053966     0.19544184
C      0.97243100    -0.29223108     0.56821097
O      1.10354968     0.63693967     1.65952859
C      0.26634839     0.39233724    -0.61109020
O     -1.05732563     0.78680723    -0.22348187
C     -2.10042423    -0.09653906    -0.36120395
C     -1.96413017    -1.41944402    -0.79414888
C     -3.08065518    -2.24864224    -0.89162881
C     -4.34289082    -1.76618155    -0.55581102
C     -4.51034357    -0.44611665    -0.11710650
C     -5.78604793     0.03573871     0.22202841
C     -5.96407413     1.34793717     0.65903813
C     -4.86887580     2.19611756     0.76179564
C     -3.59521465     1.73074970     0.42817465
C     -3.38314591     0.40628443    -0.01588900
H      5.01640687    -1.26662193     1.31862685
H      6.46235200    -0.70768499     0.47971710
H      5.45402245     0.45033894     1.35893017
H      4.59305283    -1.12662486    -1.14258387
H      4.74316385     1.04581490    -2.32796699
H      6.31198226     0.57049520    -1.66732077
H      5.36022742     1.82793086    -0.86073913
H      3.25810879     0.97421386     0.45075768
H      2.26370566    -1.59284871    -0.58517874
H      2.79187673    -1.30424431     1.08658125
H      0.36532496    -1.12101739     0.94766291
H      0.22320910     1.04668770     1.76194987
H      0.26810807    -0.20795531    -1.52695649
H      0.78218737     1.32908874    -0.85207797
H     -1.00403771    -1.84558496    -1.06124482
H     -2.96690536    -3.27568131    -1.22975383
H     -5.19927893    -2.43196023    -0.63948822
H     -6.65661751    -0.61239607     0.14710732
H     -6.95718974     1.70582559     0.91691364
H     -5.00043749     3.22070407     1.09924629
H     -2.75490675     2.41716061     0.51342057
