98
ritonavir formula=C37H48N6O5S2 tier=XL smiles=CC(C)C1=NC(=CS1)CN(C)C(=O)N[C@@H](C(C)C)C(=O)N[C@@H](CC2=CC=CC=C2)C[C@@H]([C@H](CC3=CC=CC=C3)NC(=O)OCC4=CN=CS4)O ETKDGv3+MMFF n_conf=16 seed=20240624 prune_rms=0.5 conf_id=0 rdkit=2026.03.6
C      3.74904996    -2.10235983     0.79490547
C      5.07742076    -2.21811845     0.04720607
C      6.18805594    -1.50042093     0.81446907
C      4.95397394    -1.65325211    -1.34441830
N      4.47625312    -0.45716729    -1.62484243
C      4.49567012    -0.24425134    -3.00205304
C      5.00547230    -1.29533267    -3.73928885
S      5.46582673    -2.57648038    -2.70275106
C      3.96319666     1.05104075    -3.53390541
N      2.51941123     0.94841716    -3.72862426
C      2.05177631     0.77454864    -5.09109858
C      1.58263525     1.17341386    -2.72985437
O      0.39250549     1.34133105    -2.97473212
N      2.10464745     1.22866183    -1.46171259
C      1.27698744     1.36655337    -0.25925928
C      0.30596637     2.57343145    -0.26334450
C     -0.37802464     2.79148232     1.09033345
C      1.03661955     3.86992066    -0.64290368
C      0.62449790    -0.00892142     0.06536002
O      0.27655863    -0.82737859    -0.78176176
N      0.49771488    -0.27175674     1.41709971
C      0.05869159    -1.56388060     1.94495307
C      0.49349109    -1.79513093     3.41430357
C      0.22838421    -0.68750054     4.40775489
C      1.12850515     0.38084103     4.54484166
C      0.88067276     1.40826791     5.45628893
C     -0.26063616     1.37156098     6.25362207
C     -1.14705255     0.30230814     6.14786507
C     -0.89951259    -0.72454879     5.23523325
C     -1.41720012    -1.90247742     1.63976463
C     -2.45167553    -0.85010278     2.05270813
C     -3.46898634    -0.45334287     0.94478137
C     -4.52941188    -1.52504675     0.57738833
C     -4.03836845    -2.79452290    -0.07518466
C     -3.65191089    -2.80941349    -1.42199860
C     -3.19114931    -3.98627829    -2.01432353
C     -3.12152254    -5.16246378    -1.27080553
C     -3.51431968    -5.16360571     0.06567337
C     -3.97231712    -3.98682623     0.66017073
N     -2.82577294     0.14340294    -0.21882008
C     -3.46840304     1.04398605    -1.01427470
O     -4.55017358     1.55428091    -0.76352297
O     -2.73094519     1.26923011    -2.11959740
C     -3.29261201     2.16743486    -3.08423896
C     -2.77216000     3.53783526    -2.81491482
C     -3.11965839     4.42283260    -1.81186009
N     -2.46492983     5.64030600    -1.82514600
C     -1.62857758     5.66394004    -2.83895784
S     -1.58732125     4.26246228    -3.82371130
O     -3.16546768    -1.34473097     3.19501386
H      3.81918245    -2.56525732     1.78498542
H      3.45603912    -1.05593639     0.93463480
H      2.94538510    -2.60402118     0.24464591
H      5.33582965    -3.28354437    -0.00564080
H      6.30139092    -1.92246397     1.81872934
H      5.97796498    -0.42981854     0.91962830
H      7.14921156    -1.60015141     0.29781679
H      5.11609705    -1.37378004    -4.81113998
H      4.44399680     1.31103129    -4.48394133
H      4.18023376     1.86153074    -2.82867991
H      2.59470338    -0.05426150    -5.55480640
H      2.24663218     1.69635525    -5.64720352
H      0.98155141     0.55482954    -5.13268828
H      2.88181466     0.58322756    -1.34286399
H      2.01751807     1.54105205     0.53459766
H     -0.48980456     2.40387206    -0.99370158
H      0.35519843     2.89337324     1.89725882
H     -1.05037097     1.96610118     1.33252957
H     -0.99013429     3.70020413     1.07576148
H      1.87415379     4.06354805     0.03613565
H      1.42865463     3.82957214    -1.66343604
H      0.35982507     4.72927094    -0.59189389
H      0.56849963     0.50310083     2.06301182
H      0.62611886    -2.31068939     1.36990464
H      0.05760689    -2.73214018     3.78483650
H      1.57869637    -1.97291838     3.42029566
H      2.03811124     0.41430077     3.94850111
H      1.58291741     2.23241559     5.55268529
H     -0.45241142     2.16839518     6.96752678
H     -2.02902463     0.26218471     6.78194028
H     -1.59488839    -1.55991200     5.17775719
H     -1.47397473    -2.07015730     0.56057816
H     -1.64944523    -2.86769971     2.10682835
H     -1.94027527     0.06171446     2.37789227
H     -4.06584294     0.35516579     1.39367290
H     -5.27372559    -1.07918645    -0.09683764
H     -5.09666028    -1.78559368     1.48078857
H     -3.70354168    -1.90387701    -2.02192115
H     -2.88431042    -3.98232781    -3.05695060
H     -2.76149486    -6.07704099    -1.73373248
H     -3.46195182    -6.08000846     0.64707562
H     -4.26702076    -4.00195911     1.70763648
H     -2.02389558    -0.30917259    -0.65494970
H     -4.38902080     2.15109527    -3.07428732
H     -2.98546959     1.80863836    -4.07273053
H     -3.85209859     4.22594077    -1.03698685
H     -0.99877991     6.51824812    -3.04768655
H     -3.66906663    -0.59542864     3.56117931
