38
salbutamol mw=239.31 tier=M smiles=CC(C)(C)NCC(O)c1ccc(O)c(CO)c1 ETKDGv3+MMFF n_conf=16 seed=20240624 prune_rms=0.5 conf_id=0 rdkit=2026.03.5
C     -3.43799502    -1.69285613     0.74144503
C     -3.19203579    -0.33720307     0.05099281
C     -4.24467845     0.66387938     0.55482910
C     -3.33916705    -0.53507820    -1.46638807
N     -1.82613840     0.06899548     0.42761804
C     -1.32437995     1.30741374    -0.18167564
C      0.10762351     1.69016317     0.28798767
O      0.41002659     2.98633047    -0.24954536
C      1.25243505     0.75434561    -0.06274654
C      1.13462884    -0.30211244    -0.97394195
C      2.23533649    -1.10515863    -1.27813648
C      3.46373300    -0.86275816    -0.67369370
O      4.49513827    -1.69100051    -1.02015623
C      3.62467132     0.17747238     0.24699065
C      4.95112639     0.50253544     0.87610712
O      5.67476569    -0.69845617     1.14041099
C      2.51029252     0.98481294     0.53223528
H     -4.43779444    -2.07877708     0.51052104
H     -3.36359802    -1.60850384     1.83233013
H     -2.71105873    -2.44594616     0.41410743
H     -4.17380961     1.62746277     0.03939589
H     -5.25869023     0.28271034     0.38609383
H     -4.13827456     0.84779648     1.63020374
H     -3.27680068     0.41231402    -2.01227378
H     -2.56389401    -1.20390399    -1.85785453
H     -4.31065413    -0.98094381    -1.71030429
H     -1.76189481     0.14494109     1.44335467
H     -1.32449575     1.24006269    -1.27544530
H     -1.98399178     2.14602484     0.07100489
H      0.08020085     1.80119378     1.37971180
H      0.97684417     2.84741470    -1.02887201
H      0.18802705    -0.52655485    -1.45928086
H      2.13314753    -1.92354686    -1.98579306
H      5.24937262    -1.48867981    -0.42732741
H      4.83257747     1.04112468     1.82202481
H      5.54319318     1.11921941     0.19275070
H      5.19021711    -1.14924955     1.85776802
H      2.61599377     1.81978775     1.22555155
