63
sildenafil formula=C22H30N6O4S tier=XL smiles=CCCC1=NN(C)C2=C1N=C(NC2=O)C1=C(OCC)C=CC(=C1)S(=O)(=O)N1CCN(C)CC1 ETKDGv3+MMFF n_conf=16 seed=20240624 prune_rms=0.5 conf_id=0 rdkit=2026.03.6
C     -3.55203311     4.42544807     0.27901589
C     -3.85065399     2.93763829     0.18637479
C     -3.43629473     2.20249954     1.46166492
C     -3.71457628     0.74164560     1.38379105
N     -4.83575469     0.21954411     1.91681447
N     -4.74086948    -1.10706161     1.64882390
C     -5.78754017    -2.00449884     2.07461028
C     -3.60715146    -1.43440647     0.97394219
C     -2.93276999    -0.26485628     0.79500534
N     -1.70571558    -0.17360492     0.13715249
C     -1.25432495    -1.31600725    -0.30778073
N     -1.92010568    -2.52713328    -0.15203040
C     -3.11989098    -2.67824959     0.50450136
O     -3.66510417    -3.76556297     0.65133793
C      0.05834263    -1.35361131    -1.04197120
C      0.79843123    -2.53306673    -1.28343451
O      0.26462753    -3.71753939    -0.84247866
C      1.07164109    -4.89439804    -0.92298122
C      0.30468268    -6.02638850    -0.26323289
C      2.02299474    -2.44696737    -1.96335514
C      2.52501085    -1.21159383    -2.38188501
C      1.80342896    -0.04840431    -2.12135695
C      0.56451873    -0.11786655    -1.48344243
S      2.42370989     1.52825462    -2.67400219
O      3.45694203     1.26039055    -3.65274488
O      1.27826859     2.34881642    -3.00248556
N      3.16582251     2.16710919    -1.29763790
C      2.30713778     2.64523127    -0.17832978
C      2.54179688     1.83219911     1.10936328
N      3.94329584     1.78463874     1.57620822
C      4.16280365     2.65769654     2.72715887
C      4.89649216     2.10592789     0.49374549
C      4.45181774     1.55074944    -0.87104275
H     -4.09379059     4.88321868     1.11281132
H     -2.48163867     4.60205292     0.42549316
H     -3.85663756     4.93123510    -0.64255298
H     -3.32270547     2.51909130    -0.67923614
H     -4.92258874     2.79520388     0.00247177
H     -3.96248361     2.63287488     2.32320805
H     -2.36531387     2.35550221     1.64531767
H     -6.20214054    -2.49641554     1.19137833
H     -6.57066943    -1.43630888     2.58333336
H     -5.35641587    -2.73716432     2.76111144
H     -1.49401447    -3.37932399    -0.49268301
H      2.01923655    -4.74634264    -0.39247929
H      1.25822554    -5.15209284    -1.97145986
H      0.08444610    -5.78455687     0.78189170
H      0.87684001    -6.95765912    -0.29790171
H     -0.65718893    -6.18272823    -0.76288729
H      2.61666805    -3.32766457    -2.19070819
H      3.47483125    -1.16954304    -2.91232351
H     -0.01168771     0.79348602    -1.33102781
H      2.54267644     3.70213262    -0.00336693
H      1.24627756     2.60830752    -0.44110378
H      2.23948786     0.79467533     0.92086958
H      1.86952939     2.19497991     1.89687052
H      5.20004114     2.58597911     3.07294877
H      3.53041760     2.35067333     3.56752358
H      3.94590783     3.70690981     2.49665280
H      5.02325619     3.19322942     0.39947970
H      5.87582714     1.68523896     0.74962449
H      5.21970433     1.78623495    -1.61585992
H      4.35492225     0.46220193    -0.80553598
