21
theophylline mw=180.16 tier=S smiles=Cn1c(=O)c2[nH]cnc2n(C)c1=O ETKDGv3+MMFF n_conf=16 seed=20240624 prune_rms=0.5 conf_id=0 rdkit=2026.03.5
C     -2.94914034    -0.47949929     0.09145565
N     -1.51105044    -0.31321477     0.01846351
C     -0.75233016    -1.36544243    -0.49994149
O     -1.20530973    -2.43138720    -0.90362609
C      0.63516470    -1.07884222    -0.51727698
N      1.69290272    -1.82958305    -0.93853015
C      2.81753232    -1.07272284    -0.73177089
N      2.52682278     0.10212549    -0.20827152
C      1.17113848     0.09017326    -0.07846936
N      0.38480163     1.09797849     0.42395279
C      0.99120511     2.33372733     0.88378987
C     -0.99920612     0.91754613     0.48563444
O     -1.75217587     1.79035639     0.92789850
H     -3.26671305    -0.37594502     1.13422254
H     -3.27875563    -1.45107986    -0.28483117
H     -3.42882094     0.31036663    -0.49588236
H      1.64858919    -2.76310056    -1.32713673
H      3.80901473    -1.42884605    -0.98031370
H      1.69236874     2.10792110     1.69347582
H      0.24477975     3.04054729     1.25545969
H      1.52918211     2.79892121     0.05169765
