39
trimethoprim mw=290.32 tier=M smiles=COc1cc(Cc2cnc(N)nc2N)cc(OC)c1OC ETKDGv3+MMFF n_conf=16 seed=20240624 prune_rms=0.5 conf_id=0 rdkit=2026.03.5
C     -3.31831891    -3.05408936    -0.54600063
O     -3.46068479    -1.64098697    -0.56649891
C     -2.38530082    -0.88776030    -0.17306938
C     -1.22255585    -1.39912635     0.40927308
C     -0.16648466    -0.54691517     0.77780873
C      1.07672134    -1.12437727     1.42377182
C      2.37799593    -0.67636344     0.82100970
C      3.26637517     0.08345691     1.55778025
N      4.45066751     0.51772961     1.09630251
C      4.76382306     0.15133824    -0.14588068
N      5.96974769     0.58631822    -0.65510320
N      3.97663914    -0.56346829    -0.94949104
C      2.79746591    -0.97759371    -0.46492386
N      2.00212037    -1.72081454    -1.34407257
C     -0.29740149     0.83784940     0.57324502
C     -1.44717061     1.36790560    -0.01694796
O     -1.65008426     2.70149975    -0.26119087
C     -0.49995956     3.53728637    -0.27074282
C     -2.49421415     0.49950232    -0.36457874
O     -3.61687593     1.00788424    -0.98110038
C     -4.58863814     1.36222429     0.00113563
H     -4.22811082    -3.48840899    -0.97148170
H     -2.47413283    -3.37825204    -1.16371397
H     -3.22248990    -3.42308215     0.48024478
H     -1.11924619    -2.46422628     0.59270598
H      1.04064472    -0.86873809     2.49116606
H      1.05115662    -2.22149584     1.38785913
H      3.04816678     0.38163666     2.57997825
H      5.91544833     0.60501993    -1.66429627
H      6.25492976     1.43285097    -0.18526736
H      1.12804420    -1.23178780    -1.52167772
H      1.78854520    -2.63114213    -0.95314338
H      0.51100244     1.49217173     0.88541490
H     -0.11814607     3.68455116     0.74450981
H      0.27862112     3.14272698    -0.93252941
H     -0.80119996     4.51572378    -0.65716761
H     -5.46586070     1.75377784    -0.52260923
H     -4.21605670     2.14730746     0.66805240
H     -4.90518293     0.48986726     0.58335190
