39
warfarin mw=308.33 tier=L smiles=CC(=O)CC(c1ccccc1)c1c(O)c2ccccc2oc1=O ETKDGv3+MMFF n_conf=16 seed=20240624 prune_rms=0.5 conf_id=0 rdkit=2026.03.5
C     -1.54845346     4.04507717    -0.62826481
C     -1.08865530     2.68882008    -1.09702577
O     -0.21857414     2.58194634    -1.95992760
C     -1.77445640     1.49646965    -0.45830507
C     -1.16985294     0.13969060    -0.87906022
C     -2.02273877    -0.99324149    -0.29941138
C     -2.66282167    -1.89909896    -1.15935870
C     -3.44145315    -2.93844553    -0.64738442
C     -3.58758966    -3.08899314     0.72964244
C     -2.95031780    -2.20436899     1.59662740
C     -2.17019451    -1.16471111     1.08702284
C      0.31410054    -0.11385671    -0.60669061
C      1.05160413     0.42080737     0.38349243
O      0.50962681     1.31510272     1.28587856
C      2.47077155     0.08582119     0.54812933
C      3.25712974     0.48199141     1.64002568
C      4.61104453     0.13022672     1.71263948
C      5.19466892    -0.63182121     0.70225419
C      4.42126825    -1.05633167    -0.37310738
C      3.07340050    -0.69947244    -0.42783744
O      2.33460367    -1.19986184    -1.50897565
C      0.96540210    -1.00173094    -1.61554132
O      0.33832039    -1.52829108    -2.53006998
H     -2.61398985     4.16381595    -0.83933893
H     -0.99384844     4.82576352    -1.15624115
H     -1.36197328     4.14429450     0.44391839
H     -1.77271526     1.63330313     0.62759176
H     -2.82568125     1.53525744    -0.77469366
H     -1.30220874     0.12696163    -1.97127470
H     -2.54561499    -1.80994409    -2.23833815
H     -3.92646256    -3.63519470    -1.32608137
H     -4.19065891    -3.90119208     1.12633401
H     -3.05525859    -2.32738837     2.67127101
H     -1.67103863    -0.49408396     1.78320596
H      1.20432997     1.95369928     1.52412035
H      2.83725707     1.04827681     2.46651097
H      5.20856340     0.44530067     2.56524651
H      6.24487126    -0.90628959     0.76061903
H      4.85759543    -1.66830828    -1.15760201
